ssat_solver_solve2
#level: 2
Abc_NtkNodeNum(s->pNtk): 146  , BDD limit: 10240
Build BDD success
level 1: 5 element
Exist
level 0: 5 element
Random
c ssat solving in ABC
#var: 10
s SATISFIABLE
  > Upper bound = 6.562500e-01
  > Lower bound = 6.562500e-01
FINISHED CPU 0.10 MEM 0 MAXMEM 47040 STALE 1 MAXMEM_RSS 4640
<time name="ALL">120</time>
real 1.03
user 0.31
sys 0.48
